(set-logic QF_S)
(declare-fun V62 () String )
(declare-fun V4 () String )
(declare-fun V6 () String )
(declare-fun V58 () String )
(declare-fun V5 () String )
(declare-fun V70 () String )
(declare-fun V55 () String )
(declare-fun V14 () String )
(declare-fun V38 () String )
(declare-fun V45 () String )
(declare-fun V87 () String )
(declare-fun V47 () String )
(declare-fun V32 () String )
(declare-fun V24 () String )
(declare-fun V26 () String )
(declare-fun V56 () String )
(declare-fun V9 () String )
(declare-fun V1 () String )
(declare-fun V34 () String )
(declare-fun V18 () String )
(declare-fun V28 () String )
(declare-fun V88 () String )
(declare-fun V85 () String )
(declare-fun V80 () String )
(declare-fun V3 () String )
(declare-fun V66 () String )
(declare-fun V20 () String )
(declare-fun V50 () String )
(declare-fun V11 () String )
(declare-fun V2 () String )
(declare-fun V43 () String )
(declare-fun V64 () String )
(declare-fun V37 () String )
(declare-fun V86 () String )
(declare-fun V54 () String )
(declare-fun V91 () String )
(declare-fun V53 () String )
(declare-fun V7 () String )
(declare-fun V65 () String )
(declare-fun V82 () String )
(declare-fun V36 () String )
(declare-fun V51 () String )
(declare-fun V89 () String )
(declare-fun V21 () String )
(declare-fun V68 () String )
(declare-fun V22 () String )
(declare-fun V84 () String )
(declare-fun V49 () String )
(declare-fun V83 () String )
(declare-fun V10 () String )
(declare-fun V27 () String )
(declare-fun V42 () String )
(declare-fun V16 () String )
(declare-fun V33 () String )
(declare-fun V41 () String )
(declare-fun V46 () String )
(declare-fun V8 () String )
(declare-fun V13 () String )
(declare-fun V31 () String )
(declare-fun V57 () String )
(declare-fun V40 () String )
(declare-fun V35 () String )
(declare-fun V0 () String )
(declare-fun V44 () String )
(declare-fun V29 () String )
(declare-fun V73 () String )
(declare-fun V72 () String )
(declare-fun V79 () String )
(declare-fun V59 () String )
(declare-fun V52 () String )
(declare-fun V39 () String )
(declare-fun V77 () String )
(declare-fun V69 () String )
(declare-fun V48 () String )
(declare-fun V71 () String )
(declare-fun V63 () String )
(declare-fun V30 () String )
(declare-fun V19 () String )
(declare-fun V25 () String )
(declare-fun V15 () String )
(declare-fun V12 () String )
(declare-fun V60 () String )
(declare-fun V67 () String )
(declare-fun V61 () String )
(declare-fun V76 () String )
(declare-fun V81 () String )
(declare-fun V78 () String )
(declare-fun V23 () String )
(declare-fun V17 () String )
(declare-fun V90 () String )
(assert (= "" "S" ) )
(assert (= "" V51 ) )
(assert (= "" V7 ) )
(assert (= "" V10 ) )
(assert (= "" V29 ) )
(assert (= "" V32 ) )
(assert (= "" V48 ) )
(assert (= "" V35 ) )
(assert (= "" (str.++ (str.++ V71 V72 ) V73 ) ) )
(assert (= "=" V0 ) )
(assert (= "C" V5 ) )
(assert (= "G" V14 ) )
(assert (= "S" V19 ) )
(assert (= "V" V13 ) )
(assert (= V82 V81 ) )
(assert (= V84 V83 ) )
(assert (= V62 V7 ) )
(assert (= V7 V10 ) )
(assert (= V86 V85 ) )
(assert (= V58 V11 ) )
(assert (= V12 (str.++ (str.++ V39 "C" ) V40 ) ) )
(assert (= V12 (str.++ (str.++ V9 V10 ) V11 ) ) )
(assert (= V12 (str.++ (str.++ V56 V57 ) V58 ) ) )
(assert (= V63 V10 ) )
(assert (= V66 V61 ) )
(assert (= V89 (str.++ (str.++ V87 "v" ) V88 ) ) )
(assert (= V60 (str.++ (str.++ V87 "V" ) V88 ) ) )
(assert (= V73 V69 ) )
(assert (= V68 (str.++ (str.++ V76 "S" ) V77 ) ) )
(assert (= V78 (str.++ (str.++ V76 "s" ) V77 ) ) )
(assert (= V70 (str.++ (str.++ V79 "g" ) V80 ) ) )
(assert (= V21 (str.++ (str.++ V53 V54 ) V55 ) ) )
(assert (= V21 (str.++ (str.++ V28 V29 ) V30 ) ) )
(assert (= V21 (str.++ (str.++ V37 "R" ) V38 ) ) )
(assert (= V2 (str.++ (str.++ V50 V51 ) V52 ) ) )
(assert (= V2 (str.++ (str.++ V23 V12 ) V24 ) ) )
(assert (= V2 (str.++ (str.++ V31 V32 ) V33 ) ) )
(assert (= V2 (str.++ (str.++ V41 "C" ) V42 ) ) )
(assert (= V2 (str.++ (str.++ V6 V7 ) V8 ) ) )
(assert (= V16 (str.++ (str.++ V79 "G" ) V80 ) ) )
(assert (= V4 (str.++ (str.++ V43 "=" ) V44 ) ) )
(assert (= V4 (str.++ (str.++ V20 V21 ) V22 ) ) )
(assert (= V4 (str.++ (str.++ V1 V2 ) V3 ) ) )
(assert (= V18 (str.++ (str.++ V47 V48 ) V49 ) ) )
(assert (= V18 (str.++ (str.++ V34 V35 ) V36 ) ) )
(assert (= V18 (str.++ (str.++ V45 "G" ) V46 ) ) )
(assert (= V18 (str.++ (str.++ V25 V26 ) V27 ) ) )
(assert (= V18 (str.++ (str.++ V15 V16 ) V17 ) ) )
(assert (= (str.++ V86 "V" ) (str.++ V85 "V" ) ) )
(assert (= (str.++ V70 V26 ) (str.++ (str.++ V71 V72 ) V73 ) ) )
(assert (= (str.++ V70 V26 ) (str.++ (str.++ V67 V68 ) V69 ) ) )
(assert (= (str.++ (str.++ V82 "C" ) V84 ) (str.++ (str.++ V81 "C" ) V83 ) ) )
(assert (= (str.++ (str.++ V82 "c" ) V84 ) (str.++ (str.++ V81 "c" ) V83 ) ) )
(assert (= (str.++ (str.++ V62 V63 ) V57 ) (str.++ (str.++ V90 "V" ) V91 ) ) )
(assert (= (str.++ (str.++ V62 V63 ) V57 ) (str.++ (str.++ V59 V60 ) V61 ) ) )
(assert (= (str.++ (str.++ V62 V63 ) V57 ) (str.++ (str.++ V64 V65 ) V66 ) ) )
( check-sat )
